c description: Graph pigeonhole principle formula on fast_gnp_random_graph(10,20,0.9)
c generator: CNFgen (0.9.0)
c copyright: (C) 2012-2020 Massimo Lauria <massimo.lauria@uniroma1.it>
c url: https://massimolauria.net/cnfgen
c
p cnf 182 756
1 2 3 4 5 6 7 8 9 10 11 12 13 14 15 16 17 18 19 20 0
21 22 23 24 25 26 27 28 29 30 31 32 33 34 35 36 37 38 0
39 40 41 42 43 44 45 46 47 48 49 50 51 52 53 54 55 56 57 58 0
59 60 61 62 63 64 65 66 67 68 69 70 71 72 73 74 75 76 77 78 0
79 80 81 82 83 84 85 86 87 88 89 90 91 92 93 94 95 96 97 98 0
99 100 101 102 103 104 105 106 107 108 109 110 111 112 0
113 114 115 116 117 118 119 120 121 122 123 124 125 126 127 128 129 130 0
131 132 133 134 135 136 137 138 139 140 141 142 143 144 145 146 0
147 148 149 150 151 152 153 154 155 156 157 158 159 160 161 162 163 164 165 0
166 167 168 169 170 171 172 173 174 175 176 177 178 179 180 181 182 0
-1 -21 0
-1 -39 0
-1 -59 0
-1 -79 0
-1 -99 0
-1 -113 0
-1 -147 0
-1 -166 0
-21 -39 0
-21 -59 0
-21 -79 0
-21 -99 0
-21 -113 0
-21 -147 0
-21 -166 0
-39 -59 0
-39 -79 0
-39 -99 0
-39 -113 0
-39 -147 0
-39 -166 0
-59 -79 0
-59 -99 0
-59 -113 0
-59 -147 0
-59 -166 0
-79 -99 0
-79 -113 0
-79 -147 0
-79 -166 0
-99 -113 0
-99 -147 0
-99 -166 0
-113 -147 0
-113 -166 0
-147 -166 0
-2 -22 0
-2 -40 0
-2 -60 0
-2 -80 0
-2 -100 0
-2 -114 0
-2 -167 0
-22 -40 0
-22 -60 0
-22 -80 0
-22 -100 0
-22 -114 0
-22 -167 0
-40 -60 0
-40 -80 0
-40 -100 0
-40 -114 0
-40 -167 0
-60 -80 0
-60 -100 0
-60 -114 0
-60 -167 0
-80 -100 0
-80 -114 0
-80 -167 0
-100 -114 0
-100 -167 0
-114 -167 0
-3 -23 0
-3 -41 0
-3 -61 0
-3 -81 0
-3 -101 0
-3 -115 0
-3 -131 0
-3 -148 0
-3 -168 0
-23 -41 0
-23 -61 0
-23 -81 0
-23 -101 0
-23 -115 0
-23 -131 0
-23 -148 0
-23 -168 0
-41 -61 0
-41 -81 0
-41 -101 0
-41 -115 0
-41 -131 0
-41 -148 0
-41 -168 0
-61 -81 0
-61 -101 0
-61 -115 0
-61 -131 0
-61 -148 0
-61 -168 0
-81 -101 0
-81 -115 0
-81 -131 0
-81 -148 0
-81 -168 0
-101 -115 0
-101 -131 0
-101 -148 0
-101 -168 0
-115 -131 0
-115 -148 0
-115 -168 0
-131 -148 0
-131 -168 0
-148 -168 0
-4 -24 0
-4 -42 0
-4 -62 0
-4 -82 0
-4 -102 0
-4 -116 0
-4 -132 0
-4 -149 0
-4 -169 0
-24 -42 0
-24 -62 0
-24 -82 0
-24 -102 0
-24 -116 0
-24 -132 0
-24 -149 0
-24 -169 0
-42 -62 0
-42 -82 0
-42 -102 0
-42 -116 0
-42 -132 0
-42 -149 0
-42 -169 0
-62 -82 0
-62 -102 0
-62 -116 0
-62 -132 0
-62 -149 0
-62 -169 0
-82 -102 0
-82 -116 0
-82 -132 0
-82 -149 0
-82 -169 0
-102 -116 0
-102 -132 0
-102 -149 0
-102 -169 0
-116 -132 0
-116 -149 0
-116 -169 0
-132 -149 0
-132 -169 0
-149 -169 0
-5 -25 0
-5 -43 0
-5 -63 0
-5 -83 0
-5 -133 0
-5 -150 0
-25 -43 0
-25 -63 0
-25 -83 0
-25 -133 0
-25 -150 0
-43 -63 0
-43 -83 0
-43 -133 0
-43 -150 0
-63 -83 0
-63 -133 0
-63 -150 0
-83 -133 0
-83 -150 0
-133 -150 0
-6 -26 0
-6 -44 0
-6 -64 0
-6 -84 0
-6 -103 0
-6 -117 0
-6 -134 0
-6 -151 0
-26 -44 0
-26 -64 0
-26 -84 0
-26 -103 0
-26 -117 0
-26 -134 0
-26 -151 0
-44 -64 0
-44 -84 0
-44 -103 0
-44 -117 0
-44 -134 0
-44 -151 0
-64 -84 0
-64 -103 0
-64 -117 0
-64 -134 0
-64 -151 0
-84 -103 0
-84 -117 0
-84 -134 0
-84 -151 0
-103 -117 0
-103 -134 0
-103 -151 0
-117 -134 0
-117 -151 0
-134 -151 0
-7 -27 0
-7 -45 0
-7 -65 0
-7 -85 0
-7 -104 0
-7 -118 0
-7 -135 0
-7 -152 0
-7 -170 0
-27 -45 0
-27 -65 0
-27 -85 0
-27 -104 0
-27 -118 0
-27 -135 0
-27 -152 0
-27 -170 0
-45 -65 0
-45 -85 0
-45 -104 0
-45 -118 0
-45 -135 0
-45 -152 0
-45 -170 0
-65 -85 0
-65 -104 0
-65 -118 0
-65 -135 0
-65 -152 0
-65 -170 0
-85 -104 0
-85 -118 0
-85 -135 0
-85 -152 0
-85 -170 0
-104 -118 0
-104 -135 0
-104 -152 0
-104 -170 0
-118 -135 0
-118 -152 0
-118 -170 0
-135 -152 0
-135 -170 0
-152 -170 0
-8 -46 0
-8 -66 0
-8 -86 0
-8 -119 0
-8 -136 0
-8 -153 0
-8 -171 0
-46 -66 0
-46 -86 0
-46 -119 0
-46 -136 0
-46 -153 0
-46 -171 0
-66 -86 0
-66 -119 0
-66 -136 0
-66 -153 0
-66 -171 0
-86 -119 0
-86 -136 0
-86 -153 0
-86 -171 0
-119 -136 0
-119 -153 0
-119 -171 0
-136 -153 0
-136 -171 0
-153 -171 0
-9 -28 0
-9 -47 0
-9 -67 0
-9 -87 0
-9 -120 0
-9 -137 0
-9 -154 0
-9 -172 0
-28 -47 0
-28 -67 0
-28 -87 0
-28 -120 0
-28 -137 0
-28 -154 0
-28 -172 0
-47 -67 0
-47 -87 0
-47 -120 0
-47 -137 0
-47 -154 0
-47 -172 0
-67 -87 0
-67 -120 0
-67 -137 0
-67 -154 0
-67 -172 0
-87 -120 0
-87 -137 0
-87 -154 0
-87 -172 0
-120 -137 0
-120 -154 0
-120 -172 0
-137 -154 0
-137 -172 0
-154 -172 0
-10 -29 0
-10 -48 0
-10 -68 0
-10 -88 0
-10 -105 0
-10 -121 0
-10 -138 0
-10 -155 0
-10 -173 0
-29 -48 0
-29 -68 0
-29 -88 0
-29 -105 0
-29 -121 0
-29 -138 0
-29 -155 0
-29 -173 0
-48 -68 0
-48 -88 0
-48 -105 0
-48 -121 0
-48 -138 0
-48 -155 0
-48 -173 0
-68 -88 0
-68 -105 0
-68 -121 0
-68 -138 0
-68 -155 0
-68 -173 0
-88 -105 0
-88 -121 0
-88 -138 0
-88 -155 0
-88 -173 0
-105 -121 0
-105 -138 0
-105 -155 0
-105 -173 0
-121 -138 0
-121 -155 0
-121 -173 0
-138 -155 0
-138 -173 0
-155 -173 0
-11 -30 0
-11 -49 0
-11 -69 0
-11 -89 0
-11 -106 0
-11 -122 0
-11 -139 0
-11 -156 0
-30 -49 0
-30 -69 0
-30 -89 0
-30 -106 0
-30 -122 0
-30 -139 0
-30 -156 0
-49 -69 0
-49 -89 0
-49 -106 0
-49 -122 0
-49 -139 0
-49 -156 0
-69 -89 0
-69 -106 0
-69 -122 0
-69 -139 0
-69 -156 0
-89 -106 0
-89 -122 0
-89 -139 0
-89 -156 0
-106 -122 0
-106 -139 0
-106 -156 0
-122 -139 0
-122 -156 0
-139 -156 0
-12 -31 0
-12 -50 0
-12 -70 0
-12 -90 0
-12 -123 0
-12 -157 0
-12 -174 0
-31 -50 0
-31 -70 0
-31 -90 0
-31 -123 0
-31 -157 0
-31 -174 0
-50 -70 0
-50 -90 0
-50 -123 0
-50 -157 0
-50 -174 0
-70 -90 0
-70 -123 0
-70 -157 0
-70 -174 0
-90 -123 0
-90 -157 0
-90 -174 0
-123 -157 0
-123 -174 0
-157 -174 0
-13 -32 0
-13 -51 0
-13 -71 0
-13 -91 0
-13 -107 0
-13 -124 0
-13 -140 0
-13 -158 0
-13 -175 0
-32 -51 0
-32 -71 0
-32 -91 0
-32 -107 0
-32 -124 0
-32 -140 0
-32 -158 0
-32 -175 0
-51 -71 0
-51 -91 0
-51 -107 0
-51 -124 0
-51 -140 0
-51 -158 0
-51 -175 0
-71 -91 0
-71 -107 0
-71 -124 0
-71 -140 0
-71 -158 0
-71 -175 0
-91 -107 0
-91 -124 0
-91 -140 0
-91 -158 0
-91 -175 0
-107 -124 0
-107 -140 0
-107 -158 0
-107 -175 0
-124 -140 0
-124 -158 0
-124 -175 0
-140 -158 0
-140 -175 0
-158 -175 0
-14 -33 0
-14 -52 0
-14 -72 0
-14 -92 0
-14 -125 0
-14 -159 0
-14 -176 0
-33 -52 0
-33 -72 0
-33 -92 0
-33 -125 0
-33 -159 0
-33 -176 0
-52 -72 0
-52 -92 0
-52 -125 0
-52 -159 0
-52 -176 0
-72 -92 0
-72 -125 0
-72 -159 0
-72 -176 0
-92 -125 0
-92 -159 0
-92 -176 0
-125 -159 0
-125 -176 0
-159 -176 0
-15 -34 0
-15 -53 0
-15 -73 0
-15 -93 0
-15 -108 0
-15 -126 0
-15 -141 0
-15 -160 0
-15 -177 0
-34 -53 0
-34 -73 0
-34 -93 0
-34 -108 0
-34 -126 0
-34 -141 0
-34 -160 0
-34 -177 0
-53 -73 0
-53 -93 0
-53 -108 0
-53 -126 0
-53 -141 0
-53 -160 0
-53 -177 0
-73 -93 0
-73 -108 0
-73 -126 0
-73 -141 0
-73 -160 0
-73 -177 0
-93 -108 0
-93 -126 0
-93 -141 0
-93 -160 0
-93 -177 0
-108 -126 0
-108 -141 0
-108 -160 0
-108 -177 0
-126 -141 0
-126 -160 0
-126 -177 0
-141 -160 0
-141 -177 0
-160 -177 0
-16 -35 0
-16 -54 0
-16 -74 0
-16 -94 0
-16 -127 0
-16 -142 0
-16 -161 0
-16 -178 0
-35 -54 0
-35 -74 0
-35 -94 0
-35 -127 0
-35 -142 0
-35 -161 0
-35 -178 0
-54 -74 0
-54 -94 0
-54 -127 0
-54 -142 0
-54 -161 0
-54 -178 0
-74 -94 0
-74 -127 0
-74 -142 0
-74 -161 0
-74 -178 0
-94 -127 0
-94 -142 0
-94 -161 0
-94 -178 0
-127 -142 0
-127 -161 0
-127 -178 0
-142 -161 0
-142 -178 0
-161 -178 0
-17 -36 0
-17 -55 0
-17 -75 0
-17 -95 0
-17 -109 0
-17 -128 0
-17 -143 0
-17 -162 0
-17 -179 0
-36 -55 0
-36 -75 0
-36 -95 0
-36 -109 0
-36 -128 0
-36 -143 0
-36 -162 0
-36 -179 0
-55 -75 0
-55 -95 0
-55 -109 0
-55 -128 0
-55 -143 0
-55 -162 0
-55 -179 0
-75 -95 0
-75 -109 0
-75 -128 0
-75 -143 0
-75 -162 0
-75 -179 0
-95 -109 0
-95 -128 0
-95 -143 0
-95 -162 0
-95 -179 0
-109 -128 0
-109 -143 0
-109 -162 0
-109 -179 0
-128 -143 0
-128 -162 0
-128 -179 0
-143 -162 0
-143 -179 0
-162 -179 0
-18 -56 0
-18 -76 0
-18 -96 0
-18 -110 0
-18 -144 0
-18 -163 0
-18 -180 0
-56 -76 0
-56 -96 0
-56 -110 0
-56 -144 0
-56 -163 0
-56 -180 0
-76 -96 0
-76 -110 0
-76 -144 0
-76 -163 0
-76 -180 0
-96 -110 0
-96 -144 0
-96 -163 0
-96 -180 0
-110 -144 0
-110 -163 0
-110 -180 0
-144 -163 0
-144 -180 0
-163 -180 0
-19 -37 0
-19 -57 0
-19 -77 0
-19 -97 0
-19 -111 0
-19 -129 0
-19 -145 0
-19 -164 0
-19 -181 0
-37 -57 0
-37 -77 0
-37 -97 0
-37 -111 0
-37 -129 0
-37 -145 0
-37 -164 0
-37 -181 0
-57 -77 0
-57 -97 0
-57 -111 0
-57 -129 0
-57 -145 0
-57 -164 0
-57 -181 0
-77 -97 0
-77 -111 0
-77 -129 0
-77 -145 0
-77 -164 0
-77 -181 0
-97 -111 0
-97 -129 0
-97 -145 0
-97 -164 0
-97 -181 0
-111 -129 0
-111 -145 0
-111 -164 0
-111 -181 0
-129 -145 0
-129 -164 0
-129 -181 0
-145 -164 0
-145 -181 0
-164 -181 0
-20 -38 0
-20 -58 0
-20 -78 0
-20 -98 0
-20 -112 0
-20 -130 0
-20 -146 0
-20 -165 0
-20 -182 0
-38 -58 0
-38 -78 0
-38 -98 0
-38 -112 0
-38 -130 0
-38 -146 0
-38 -165 0
-38 -182 0
-58 -78 0
-58 -98 0
-58 -112 0
-58 -130 0
-58 -146 0
-58 -165 0
-58 -182 0
-78 -98 0
-78 -112 0
-78 -130 0
-78 -146 0
-78 -165 0
-78 -182 0
-98 -112 0
-98 -130 0
-98 -146 0
-98 -165 0
-98 -182 0
-112 -130 0
-112 -146 0
-112 -165 0
-112 -182 0
-130 -146 0
-130 -165 0
-130 -182 0
-146 -165 0
-146 -182 0
-165 -182 0